10	5
0	5	5	3	4	2	1
1	1	6
2	3	8	9	7
3	2	7	9
4	3	7	8	9
5	3	10	8	9
6	3	8	10	7
7	1	11
8	1	11
9	1	11
10	1	11
11	0
0	0	0	0	0	0	0
1	8	3	1	4	4	1
2	5	2	2	1	3	4
3	9	2	3	1	3	4
4	4	5	4	3	5	4
5	8	2	1	2	4	3
6	8	5	3	2	2	3
7	10	4	3	3	5	4
8	2	4	2	1	1	2
9	4	2	3	2	3	4
10	7	5	4	5	4	5
11	0	0	0	0	0	0
10	8	8	12	11
